50
1 0 37
2 0 80
2 1 72
3 0 59
3 1 50
3 2 30
4 0 26
4 1 47
4 2 64
4 3 50
5 0 47
5 1 48
5 2 23
5 3 8
5 4 50
6 0 7
6 1 67
6 2 42
6 3 80
6 4 28
6 5 8
7 0 61
7 1 43
7 2 51
7 3 72
7 4 75
7 5 30
7 6 10
8 0 2
8 1 8
8 2 75
8 3 64
8 4 33
8 5 59
8 6 21
8 7 56
9 0 14
9 1 47
9 2 61
9 3 38
9 4 63
9 5 51
9 6 25
9 7 61
9 8 21
10 0 31
10 1 17
10 2 69
10 3 20
10 4 41
10 5 41
10 6 9
10 7 26
10 8 60
10 9 52
11 0 32
11 1 75
11 2 33
11 3 33
11 4 6
11 5 66
11 6 13
11 7 60
11 8 17
11 9 63
11 10 50
12 0 64
12 1 52
12 2 6
12 3 8
12 4 25
12 5 54
12 6 73
12 7 42
12 8 22
12 9 79
12 10 78
12 11 35
13 0 25
13 1 32
13 2 47
13 3 34
13 4 29
13 5 44
13 6 7
13 7 36
13 8 47
13 9 21
13 10 61
13 11 12
13 12 43
14 0 53
14 1 8
14 2 51
14 3 72
14 4 80
14 5 26
14 6 63
14 7 57
14 8 61
14 9 39
14 10 70
14 11 38
14 12 59
14 13 52
15 0 77
15 1 57
15 2 69
15 3 56
15 4 46
15 5 76
15 6 11
15 7 8
15 8 32
15 9 10
15 10 74
15 11 36
15 12 14
15 13 72
15 14 38
16 0 58
16 1 80
16 2 19
16 3 29
16 4 46
16 5 44
16 6 50
16 7 23
16 8 74
16 9 13
16 10 24
16 11 33
16 12 80
16 13 60
16 14 53
16 15 5
17 0 24
17 1 57
17 2 63
17 3 57
17 4 19
17 5 60
17 6 36
17 7 29
17 8 38
17 9 76
17 10 18
17 11 57
17 12 6
17 13 42
17 14 58
17 15 3
17 16 14
18 0 29
18 1 61
18 2 22
18 3 54
18 4 77
18 5 12
18 6 78
18 7 10
18 8 42
18 9 34
18 10 8
18 11 74
18 12 26
18 13 50
18 14 62
18 15 28
18 16 45
18 17 10
19 0 34
19 1 20
19 2 33
19 3 64
19 4 4
19 5 17
19 6 65
19 7 25
19 8 36
19 9 48
19 10 26
19 11 22
19 12 54
19 13 69
19 14 11
19 15 34
19 16 6
19 17 73
19 18 75
20 0 9
20 1 48
20 2 40
20 3 26
20 4 71
20 5 31
20 6 65
20 7 71
20 8 71
20 9 51
20 10 75
20 11 16
20 12 7
20 13 33
20 14 55
20 15 32
20 16 8
20 17 64
20 18 1
20 19 70
21 0 55
21 1 52
21 2 3
21 3 43
21 4 18
21 5 55
21 6 30
21 7 44
21 8 1
21 9 71
21 10 24
21 11 27
21 12 74
21 13 24
21 14 80
21 15 47
21 16 70
21 17 58
21 18 64
21 19 24
21 20 7
22 0 77
22 1 15
22 2 13
22 3 23
22 4 38
22 5 17
22 6 69
22 7 78
22 8 61
22 9 18
22 10 6
22 11 58
22 12 58
22 13 20
22 14 14
22 15 6
22 16 71
22 17 40
22 18 11
22 19 22
22 20 15
22 21 60
23 0 66
23 1 19
23 2 55
23 3 35
23 4 71
23 5 22
23 6 36
23 7 1
23 8 76
23 9 38
23 10 45
23 11 55
23 12 57
23 13 73
23 14 63
23 15 47
23 16 16
23 17 74
23 18 38
23 19 17
23 20 23
23 21 19
23 22 69
24 0 21
24 1 16
24 2 49
24 3 39
24 4 57
24 5 50
24 6 19
24 7 61
24 8 38
24 9 60
24 10 24
24 11 60
24 12 68
24 13 14
24 14 15
24 15 50
24 16 1
24 17 47
24 18 18
24 19 43
24 20 67
24 21 58
24 22 15
24 23 54
25 0 8
25 1 74
25 2 65
25 3 69
25 4 62
25 5 24
25 6 76
25 7 80
25 8 58
25 9 32
25 10 23
25 11 4
25 12 37
25 13 63
25 14 53
25 15 44
25 16 32
25 17 80
25 18 32
25 19 63
25 20 73
25 21 59
25 22 22
25 23 78
25 24 12
26 0 23
26 1 73
26 2 26
26 3 23
26 4 52
26 5 62
26 6 53
26 7 75
26 8 44
26 9 14
26 10 6
26 11 46
26 12 49
26 13 65
26 14 51
26 15 27
26 16 28
26 17 50
26 18 24
26 19 55
26 20 37
26 21 35
26 22 46
26 23 49
26 24 79
26 25 19
27 0 21
27 1 28
27 2 6
27 3 14
27 4 62
27 5 1
27 6 28
27 7 69
27 8 39
27 9 27
27 10 30
27 11 10
27 12 23
27 13 49
27 14 46
27 15 59
27 16 32
27 17 40
27 18 37
27 19 38
27 20 64
27 21 14
27 22 22
27 23 52
27 24 11
27 25 13
27 26 27
28 0 78
28 1 68
28 2 53
28 3 40
28 4 27
28 5 64
28 6 28
28 7 66
28 8 72
28 9 64
28 10 67
28 11 12
28 12 49
28 13 56
28 14 29
28 15 13
28 16 79
28 17 2
28 18 31
28 19 26
28 20 57
28 21 15
28 22 10
28 23 50
28 24 56
28 25 76
28 26 15
28 27 79
29 0 19
29 1 39
29 2 73
29 3 73
29 4 51
29 5 24
29 6 7
29 7 49
29 8 39
29 9 78
29 10 75
29 11 53
29 12 23
29 13 12
29 14 68
29 15 11
29 16 24
29 17 49
29 18 12
29 19 40
29 20 55
29 21 16
29 22 51
29 23 69
29 24 23
29 25 63
29 26 4
29 27 30
29 28 57
30 0 69
30 1 43
30 2 61
30 3 49
30 4 16
30 5 53
30 6 36
30 7 12
30 8 53
30 9 59
30 10 50
30 11 9
30 12 25
30 13 33
30 14 16
30 15 25
30 16 21
30 17 61
30 18 53
30 19 2
30 20 62
30 21 32
30 22 6
30 23 52
30 24 72
30 25 24
30 26 75
30 27 78
30 28 30
30 29 31
31 0 31
31 1 52
31 2 45
31 3 4
31 4 21
31 5 52
31 6 80
31 7 12
31 8 63
31 9 75
31 10 28
31 11 17
31 12 75
31 13 56
31 14 13
31 15 61
31 16 72
31 17 50
31 18 57
31 19 10
31 20 73
31 21 26
31 22 43
31 23 6
31 24 52
31 25 58
31 26 72
31 27 21
31 28 66
31 29 6
31 30 73
32 0 6
32 1 53
32 2 77
32 3 15
32 4 47
32 5 35
32 6 29
32 7 26
32 8 52
32 9 24
32 10 51
32 11 33
32 12 23
32 13 77
32 14 14
32 15 48
32 16 4
32 17 79
32 18 67
32 19 15
32 20 56
32 21 68
32 22 42
32 23 75
32 24 64
32 25 77
32 26 51
32 27 39
32 28 59
32 29 25
32 30 1
32 31 5
33 0 31
33 1 29
33 2 65
33 3 76
33 4 38
33 5 35
33 6 20
33 7 25
33 8 22
33 9 66
33 10 35
33 11 35
33 12 21
33 13 4
33 14 28
33 15 26
33 16 64
33 17 27
33 18 79
33 19 32
33 20 78
33 21 3
33 22 14
33 23 53
33 24 24
33 25 50
33 26 31
33 27 40
33 28 60
33 29 42
33 30 66
33 31 6
33 32 19
34 0 63
34 1 37
34 2 80
34 3 73
34 4 42
34 5 63
34 6 53
34 7 36
34 8 40
34 9 37
34 10 32
34 11 35
34 12 30
34 13 24
34 14 47
34 15 35
34 16 31
34 17 76
34 18 73
34 19 37
34 20 51
34 21 37
34 22 70
34 23 64
34 24 5
34 25 50
34 26 7
34 27 35
34 28 73
34 29 39
34 30 54
34 31 53
34 32 22
34 33 58
35 0 27
35 1 27
35 2 77
35 3 56
35 4 40
35 5 24
35 6 60
35 7 22
35 8 53
35 9 35
35 10 66
35 11 62
35 12 7
35 13 57
35 14 6
35 15 64
35 16 12
35 17 12
35 18 20
35 19 47
35 20 16
35 21 33
35 22 32
35 23 9
35 24 58
35 25 45
35 26 5
35 27 29
35 28 80
35 29 15
35 30 6
35 31 27
35 32 60
35 33 73
35 34 74
36 0 41
36 1 31
36 2 2
36 3 9
36 4 13
36 5 64
36 6 56
36 7 77
36 8 49
36 9 71
36 10 2
36 11 56
36 12 23
36 13 18
36 14 74
36 15 68
36 16 15
36 17 46
36 18 45
36 19 28
36 20 5
36 21 7
36 22 68
36 23 56
36 24 50
36 25 41
36 26 20
36 27 20
36 28 30
36 29 55
36 30 67
36 31 32
36 32 68
36 33 11
36 34 29
36 35 18
37 0 51
37 1 41
37 2 68
37 3 71
37 4 12
37 5 23
37 6 76
37 7 67
37 8 14
37 9 72
37 10 76
37 11 56
37 12 60
37 13 14
37 14 29
37 15 13
37 16 50
37 17 74
37 18 31
37 19 42
37 20 50
37 21 68
37 22 47
37 23 51
37 24 51
37 25 13
37 26 66
37 27 11
37 28 72
37 29 61
37 30 75
37 31 53
37 32 63
37 33 49
37 34 8
37 35 11
37 36 48
38 0 63
38 1 41
38 2 23
38 3 55
38 4 35
38 5 6
38 6 17
38 7 1
38 8 26
38 9 6
38 10 39
38 11 16
38 12 2
38 13 7
38 14 14
38 15 24
38 16 64
38 17 55
38 18 55
38 19 10
38 20 56
38 21 37
38 22 39
38 23 63
38 24 29
38 25 58
38 26 72
38 27 59
38 28 65
38 29 50
38 30 51
38 31 40
38 32 75
38 33 57
38 34 73
38 35 70
38 36 45
38 37 19
39 0 73
39 1 28
39 2 31
39 3 38
39 4 25
39 5 74
39 6 4
39 7 4
39 8 5
39 9 49
39 10 15
39 11 10
39 12 35
39 13 27
39 14 14
39 15 54
39 16 28
39 17 1
39 18 6
39 19 33
39 20 12
39 21 78
39 22 59
39 23 3
39 24 45
39 25 6
39 26 22
39 27 68
39 28 49
39 29 6
39 30 26
39 31 73
39 32 26
39 33 17
39 34 57
39 35 21
39 36 69
39 37 4
39 38 42
40 0 79
40 1 28
40 2 75
40 3 59
40 4 2
40 5 29
40 6 61
40 7 64
40 8 4
40 9 6
40 10 65
40 11 72
40 12 64
40 13 27
40 14 67
40 15 60
40 16 60
40 17 21
40 18 56
40 19 17
40 20 78
40 21 14
40 22 24
40 23 3
40 24 36
40 25 68
40 26 42
40 27 37
40 28 38
40 29 38
40 30 26
40 31 53
40 32 49
40 33 64
40 34 36
40 35 2
40 36 37
40 37 24
40 38 22
40 39 77
41 0 26
41 1 30
41 2 51
41 3 54
41 4 22
41 5 79
41 6 69
41 7 74
41 8 32
41 9 14
41 10 18
41 11 78
41 12 20
41 13 17
41 14 49
41 15 13
41 16 43
41 17 56
41 18 4
41 19 50
41 20 71
41 21 45
41 22 34
41 23 27
41 24 4
41 25 60
41 26 46
41 27 31
41 28 66
41 29 29
41 30 40
41 31 15
41 32 58
41 33 15
41 34 38
41 35 78
41 36 9
41 37 9
41 38 18
41 39 71
41 40 18
42 0 56
42 1 38
42 2 38
42 3 33
42 4 6
42 5 45
42 6 18
42 7 47
42 8 65
42 9 71
42 10 66
42 11 36
42 12 37
42 13 31
42 14 76
42 15 23
42 16 74
42 17 29
42 18 65
42 19 22
42 20 67
42 21 20
42 22 77
42 23 36
42 24 53
42 25 25
42 26 78
42 27 80
42 28 9
42 29 10
42 30 63
42 31 41
42 32 13
42 33 45
42 34 17
42 35 13
42 36 57
42 37 46
42 38 57
42 39 10
42 40 59
42 41 61
43 0 22
43 1 50
43 2 30
43 3 75
43 4 27
43 5 40
43 6 35
43 7 70
43 8 64
43 9 10
43 10 8
43 11 75
43 12 61
43 13 77
43 14 79
43 15 41
43 16 32
43 17 26
43 18 57
43 19 17
43 20 12
43 21 76
43 22 53
43 23 31
43 24 20
43 25 42
43 26 52
43 27 31
43 28 1
43 29 17
43 30 44
43 31 43
43 32 55
43 33 69
43 34 23
43 35 79
43 36 56
43 37 42
43 38 50
43 39 52
43 40 31
43 41 21
43 42 41
44 0 77
44 1 67
44 2 43
44 3 26
44 4 21
44 5 33
44 6 55
44 7 69
44 8 79
44 9 66
44 10 9
44 11 2
44 12 78
44 13 80
44 14 25
44 15 66
44 16 33
44 17 19
44 18 70
44 19 60
44 20 44
44 21 13
44 22 80
44 23 66
44 24 77
44 25 40
44 26 19
44 27 79
44 28 5
44 29 73
44 30 41
44 31 28
44 32 9
44 33 15
44 34 43
44 35 61
44 36 73
44 37 42
44 38 18
44 39 49
44 40 15
44 41 67
44 42 63
44 43 52
45 0 71
45 1 20
45 2 41
45 3 42
45 4 15
45 5 21
45 6 38
45 7 13
45 8 3
45 9 6
45 10 48
45 11 16
45 12 22
45 13 27
45 14 76
45 15 7
45 16 60
45 17 3
45 18 8
45 19 52
45 20 79
45 21 38
45 22 72
45 23 10
45 24 37
45 25 40
45 26 5
45 27 4
45 28 18
45 29 29
45 30 33
45 31 39
45 32 53
45 33 80
45 34 54
45 35 25
45 36 59
45 37 38
45 38 9
45 39 72
45 40 46
45 41 5
45 42 34
45 43 9
45 44 54
46 0 73
46 1 67
46 2 39
46 3 79
46 4 48
46 5 3
46 6 15
46 7 35
46 8 70
46 9 42
46 10 77
46 11 70
46 12 21
46 13 58
46 14 18
46 15 43
46 16 47
46 17 41
46 18 72
46 19 17
46 20 30
46 21 29
46 22 73
46 23 2
46 24 67
46 25 5
46 26 15
46 27 35
46 28 66
46 29 69
46 30 52
46 31 56
46 32 70
46 33 28
46 34 46
46 35 12
46 36 40
46 37 40
46 38 28
46 39 69
46 40 2
46 41 53
46 42 35
46 43 48
46 44 64
46 45 40
47 0 78
47 1 8
47 2 50
47 3 5
47 4 46
47 5 17
47 6 45
47 7 38
47 8 6
47 9 26
47 10 53
47 11 14
47 12 25
47 13 1
47 14 7
47 15 18
47 16 13
47 17 3
47 18 62
47 19 48
47 20 44
47 21 6
47 22 53
47 23 22
47 24 4
47 25 61
47 26 75
47 27 28
47 28 16
47 29 67
47 30 5
47 31 71
47 32 74
47 33 56
47 34 33
47 35 71
47 36 35
47 37 41
47 38 55
47 39 63
47 40 47
47 41 51
47 42 48
47 43 20
47 44 42
47 45 19
47 46 43
48 0 21
48 1 21
48 2 77
48 3 77
48 4 61
48 5 25
48 6 39
48 7 72
48 8 11
48 9 48
48 10 1
48 11 69
48 12 63
48 13 25
48 14 7
48 15 73
48 16 78
48 17 27
48 18 36
48 19 54
48 20 11
48 21 46
48 22 43
48 23 58
48 24 16
48 25 5
48 26 9
48 27 41
48 28 40
48 29 76
48 30 78
48 31 52
48 32 44
48 33 48
48 34 62
48 35 35
48 36 40
48 37 27
48 38 30
48 39 66
48 40 24
48 41 54
48 42 28
48 43 21
48 44 59
48 45 16
48 46 35
48 47 76
49 0 70
49 1 5
49 2 11
49 3 57
49 4 47
49 5 7
49 6 58
49 7 34
49 8 22
49 9 74
49 10 33
49 11 31
49 12 71
49 13 39
49 14 35
49 15 53
49 16 66
49 17 72
49 18 8
49 19 67
49 20 29
49 21 47
49 22 36
49 23 64
49 24 59
49 25 15
49 26 60
49 27 50
49 28 80
49 29 36
49 30 5
49 31 39
49 32 9
49 33 29
49 34 51
49 35 36
49 36 13
49 37 4
49 38 72
49 39 15
49 40 46
49 41 24
49 42 15
49 43 19
49 44 48
49 45 56
49 46 45
49 47 35
49 48 37
